NAME 
OBJSENSE MAX
ROWS
 N  OBJ
 L  packing[0]
 L  packing[1]
 L  packing[2]
 L  packing[3]
 L  packing[4]
 L  packing[5]
 L  packing[6]
 L  packing[7]
 L  packing[8]
 L  packing[9]
 L  packing[10]
 L  packing[11]
 L  packing[12]
 L  packing[13]
 L  packing[14]
 L  packing[15]
 L  packing[16]
 L  packing[17]
 L  packing[18]
 L  packing[19]
 L  packing[20]
 L  packing[21]
 L  packing[22]
 L  packing[23]
 L  packing[24]
 L  packing[25]
 L  packing[26]
 L  packing[27]
 L  packing[28]
 L  packing[29]
 L  packing[30]
 L  packing[31]
 L  packing[32]
 L  packing[33]
 L  packing[34]
 L  packing[35]
 L  packing[36]
 L  packing[37]
 L  packing[38]
 L  packing[39]
 L  packing[40]
 L  packing[41]
 L  packing[42]
 L  packing[43]
 L  packing[44]
 L  packing[45]
 L  packing[46]
 L  packing[47]
 L  packing[48]
 L  packing[49]
 L  R59     
COLUMNS
    MARKER    'MARKER'                 'INTORG'
    x[1]      OBJ       6
    x[1]      packing[1]  89
    x[1]      packing[2]  196
    x[1]      packing[3]  118
    x[1]      packing[5]  8
    x[1]      packing[7]  156
    x[1]      packing[9]  57
    x[1]      packing[10]  121
    x[1]      packing[11]  122
    x[1]      packing[12]  160
    x[1]      packing[14]  127
    x[1]      packing[16]  147
    x[1]      packing[17]  52
    x[1]      packing[19]  145
    x[1]      packing[20]  84
    x[1]      packing[21]  86
    x[1]      packing[22]  133
    x[1]      packing[23]  103
    x[1]      packing[25]  76
    x[1]      packing[27]  174
    x[1]      packing[28]  1
    x[1]      packing[29]  23
    x[1]      packing[30]  96
    x[1]      packing[31]  162
    x[1]      packing[34]  154
    x[1]      packing[35]  100
    x[1]      packing[36]  5
    x[1]      packing[38]  69
    x[1]      packing[39]  40
    x[1]      packing[40]  54
    x[1]      packing[41]  170
    x[1]      packing[42]  142
    x[1]      packing[44]  193
    x[1]      packing[45]  42
    x[1]      packing[46]  192
    x[1]      packing[47]  114
    x[2]      OBJ       44
    x[2]      packing[0]  134
    x[2]      packing[3]  124
    x[2]      packing[4]  177
    x[2]      packing[5]  22
    x[2]      packing[6]  196
    x[2]      packing[10]  116
    x[2]      packing[11]  96
    x[2]      packing[13]  37
    x[2]      packing[14]  137
    x[2]      packing[15]  77
    x[2]      packing[17]  26
    x[2]      packing[19]  145
    x[2]      packing[20]  64
    x[2]      packing[21]  163
    x[2]      packing[22]  133
    x[2]      packing[23]  21
    x[2]      packing[24]  93
    x[2]      packing[25]  80
    x[2]      packing[26]  149
    x[2]      packing[27]  15
    x[2]      packing[29]  27
    x[2]      packing[30]  57
    x[2]      packing[33]  158
    x[2]      packing[34]  102
    x[2]      packing[35]  147
    x[2]      packing[36]  97
    x[2]      packing[37]  155
    x[2]      packing[38]  141
    x[2]      packing[39]  7
    x[2]      packing[40]  54
    x[2]      packing[41]  85
    x[2]      packing[42]  109
    x[2]      packing[43]  18
    x[2]      packing[44]  19
    x[2]      packing[45]  114
    x[2]      packing[46]  40
    x[2]      packing[47]  19
    x[2]      packing[48]  45
    x[2]      packing[49]  46
    x[2]      R59       1
    x[3]      OBJ       45
    x[3]      packing[0]  82
    x[3]      packing[1]  145
    x[3]      packing[3]  147
    x[3]      packing[5]  87
    x[3]      packing[6]  108
    x[3]      packing[7]  172
    x[3]      packing[8]  11
    x[3]      packing[10]  29
    x[3]      packing[11]  113
    x[3]      packing[13]  145
    x[3]      packing[14]  153
    x[3]      packing[15]  62
    x[3]      packing[18]  22
    x[3]      packing[19]  114
    x[3]      packing[20]  116
    x[3]      packing[23]  191
    x[3]      packing[26]  93
    x[3]      packing[28]  69
    x[3]      packing[29]  98
    x[3]      packing[31]  188
    x[3]      packing[33]  42
    x[3]      packing[34]  192
    x[3]      packing[35]  46
    x[3]      packing[36]  72
    x[3]      packing[37]  135
    x[3]      packing[38]  113
    x[3]      packing[39]  179
    x[3]      packing[40]  15
    x[3]      packing[41]  146
    x[3]      packing[43]  50
    x[3]      packing[45]  130
    x[3]      packing[46]  196
    x[3]      packing[47]  16
    x[3]      packing[48]  31
    x[3]      packing[49]  188
    x[4]      OBJ       66
    x[4]      packing[0]  104
    x[4]      packing[1]  26
    x[4]      packing[3]  185
    x[4]      packing[5]  99
    x[4]      packing[6]  190
    x[4]      packing[8]  93
    x[4]      packing[9]  189
    x[4]      packing[10]  2
    x[4]      packing[11]  68
    x[4]      packing[12]  70
    x[4]      packing[14]  125
    x[4]      packing[16]  195
    x[4]      packing[17]  143
    x[4]      packing[18]  17
    x[4]      packing[19]  168
    x[4]      packing[20]  190
    x[4]      packing[21]  62
    x[4]      packing[22]  149
    x[4]      packing[23]  133
    x[4]      packing[24]  152
    x[4]      packing[25]  21
    x[4]      packing[26]  85
    x[4]      packing[30]  187
    x[4]      packing[31]  6
    x[4]      packing[32]  185
    x[4]      packing[33]  136
    x[4]      packing[34]  179
    x[4]      packing[35]  93
    x[4]      packing[36]  96
    x[4]      packing[37]  38
    x[4]      packing[38]  103
    x[4]      packing[39]  131
    x[4]      packing[40]  139
    x[4]      packing[42]  21
    x[4]      packing[43]  124
    x[4]      packing[44]  30
    x[4]      packing[45]  171
    x[4]      packing[47]  4
    x[4]      packing[48]  1
    x[4]      packing[49]  91
    x[5]      OBJ       14
    x[5]      packing[1]  54
    x[5]      packing[3]  89
    x[5]      packing[4]  166
    x[5]      packing[5]  90
    x[5]      packing[7]  168
    x[5]      packing[8]  154
    x[5]      packing[9]  182
    x[5]      packing[10]  95
    x[5]      packing[11]  178
    x[5]      packing[12]  133
    x[5]      packing[15]  189
    x[5]      packing[16]  161
    x[5]      packing[17]  78
    x[5]      packing[19]  142
    x[5]      packing[21]  105
    x[5]      packing[22]  145
    x[5]      packing[23]  35
    x[5]      packing[24]  139
    x[5]      packing[25]  132
    x[5]      packing[26]  127
    x[5]      packing[27]  143
    x[5]      packing[28]  67
    x[5]      packing[30]  78
    x[5]      packing[31]  116
    x[5]      packing[32]  30
    x[5]      packing[34]  12
    x[5]      packing[37]  98
    x[5]      packing[38]  28
    x[5]      packing[39]  163
    x[5]      packing[40]  93
    x[5]      packing[41]  106
    x[5]      packing[43]  65
    x[5]      packing[44]  71
    x[5]      packing[47]  144
    x[5]      packing[48]  24
    x[5]      packing[49]  131
    x[6]      OBJ       95
    x[6]      packing[0]  15
    x[6]      packing[1]  143
    x[6]      packing[2]  87
    x[6]      packing[3]  197
    x[6]      packing[5]  187
    x[6]      packing[6]  78
    x[6]      packing[12]  97
    x[6]      packing[13]  84
    x[6]      packing[14]  2
    x[6]      packing[16]  37
    x[6]      packing[17]  140
    x[6]      packing[18]  96
    x[6]      packing[19]  84
    x[6]      packing[20]  104
    x[6]      packing[21]  60
    x[6]      packing[22]  109
    x[6]      packing[24]  124
    x[6]      packing[25]  192
    x[6]      packing[26]  80
    x[6]      packing[27]  82
    x[6]      packing[28]  108
    x[6]      packing[29]  90
    x[6]      packing[30]  176
    x[6]      packing[31]  143
    x[6]      packing[32]  78
    x[6]      packing[33]  58
    x[6]      packing[34]  92
    x[6]      packing[35]  63
    x[6]      packing[36]  55
    x[6]      packing[37]  180
    x[6]      packing[41]  91
    x[6]      packing[42]  194
    x[6]      packing[43]  145
    x[6]      packing[44]  109
    x[6]      packing[45]  1
    x[6]      packing[46]  140
    x[6]      packing[47]  20
    x[6]      packing[48]  158
    x[7]      OBJ       21
    x[7]      packing[0]  72
    x[7]      packing[1]  125
    x[7]      packing[2]  133
    x[7]      packing[3]  144
    x[7]      packing[4]  110
    x[7]      packing[5]  110
    x[7]      packing[7]  83
    x[7]      packing[8]  147
    x[7]      packing[9]  197
    x[7]      packing[10]  173
    x[7]      packing[11]  160
    x[7]      packing[12]  80
    x[7]      packing[13]  44
    x[7]      packing[14]  44
    x[7]      packing[16]  41
    x[7]      packing[18]  45
    x[7]      packing[19]  176
    x[7]      packing[21]  87
    x[7]      packing[22]  54
    x[7]      packing[23]  177
    x[7]      packing[24]  85
    x[7]      packing[25]  176
    x[7]      packing[26]  185
    x[7]      packing[27]  81
    x[7]      packing[31]  51
    x[7]      packing[33]  129
    x[7]      packing[34]  53
    x[7]      packing[35]  131
    x[7]      packing[36]  129
    x[7]      packing[37]  1
    x[7]      packing[38]  105
    x[7]      packing[39]  116
    x[7]      packing[40]  198
    x[7]      packing[41]  177
    x[7]      packing[42]  55
    x[7]      packing[43]  27
    x[7]      packing[44]  181
    x[7]      packing[45]  114
    x[7]      packing[46]  20
    x[7]      packing[47]  43
    x[7]      packing[49]  97
    x[7]      R59       1
    x[8]      OBJ       25
    x[8]      packing[0]  139
    x[8]      packing[1]  29
    x[8]      packing[2]  173
    x[8]      packing[3]  45
    x[8]      packing[4]  58
    x[8]      packing[5]  112
    x[8]      packing[6]  173
    x[8]      packing[7]  134
    x[8]      packing[8]  157
    x[8]      packing[9]  43
    x[8]      packing[11]  124
    x[8]      packing[15]  67
    x[8]      packing[16]  24
    x[8]      packing[17]  190
    x[8]      packing[19]  6
    x[8]      packing[20]  55
    x[8]      packing[22]  11
    x[8]      packing[24]  161
    x[8]      packing[28]  153
    x[8]      packing[30]  9
    x[8]      packing[31]  58
    x[8]      packing[33]  141
    x[8]      packing[34]  44
    x[8]      packing[35]  98
    x[8]      packing[36]  171
    x[8]      packing[37]  172
    x[8]      packing[38]  67
    x[8]      packing[42]  196
    x[8]      packing[43]  121
    x[8]      packing[44]  8
    x[8]      packing[45]  175
    x[8]      packing[46]  111
    x[8]      packing[47]  175
    x[8]      packing[48]  85
    x[8]      packing[49]  94
    x[9]      OBJ       78
    x[9]      packing[0]  20
    x[9]      packing[1]  143
    x[9]      packing[2]  31
    x[9]      packing[4]  136
    x[9]      packing[7]  12
    x[9]      packing[8]  196
    x[9]      packing[9]  92
    x[9]      packing[10]  186
    x[9]      packing[11]  75
    x[9]      packing[13]  173
    x[9]      packing[14]  122
    x[9]      packing[15]  15
    x[9]      packing[16]  163
    x[9]      packing[17]  59
    x[9]      packing[18]  86
    x[9]      packing[19]  31
    x[9]      packing[20]  65
    x[9]      packing[21]  70
    x[9]      packing[24]  121
    x[9]      packing[27]  133
    x[9]      packing[28]  116
    x[9]      packing[30]  123
    x[9]      packing[32]  136
    x[9]      packing[33]  87
    x[9]      packing[34]  24
    x[9]      packing[38]  15
    x[9]      packing[39]  40
    x[9]      packing[40]  110
    x[9]      packing[42]  133
    x[9]      packing[43]  131
    x[9]      packing[44]  50
    x[9]      packing[45]  182
    x[9]      packing[46]  192
    x[9]      packing[47]  190
    x[9]      packing[48]  1
    x[9]      packing[49]  97
    x[10]     OBJ       84
    x[10]     packing[0]  20
    x[10]     packing[1]  4
    x[10]     packing[3]  48
    x[10]     packing[5]  89
    x[10]     packing[8]  107
    x[10]     packing[9]  71
    x[10]     packing[12]  40
    x[10]     packing[13]  175
    x[10]     packing[14]  52
    x[10]     packing[15]  36
    x[10]     packing[16]  140
    x[10]     packing[17]  1
    x[10]     packing[19]  154
    x[10]     packing[23]  170
    x[10]     packing[24]  93
    x[10]     packing[25]  39
    x[10]     packing[27]  128
    x[10]     packing[28]  84
    x[10]     packing[29]  155
    x[10]     packing[30]  53
    x[10]     packing[31]  102
    x[10]     packing[33]  166
    x[10]     packing[34]  16
    x[10]     packing[36]  22
    x[10]     packing[37]  184
    x[10]     packing[38]  23
    x[10]     packing[41]  192
    x[10]     packing[42]  33
    x[10]     packing[43]  66
    x[10]     packing[44]  108
    x[10]     packing[45]  153
    x[10]     packing[46]  182
    x[10]     packing[48]  193
    x[10]     packing[49]  76
    x[10]     R59       1
    x[11]     OBJ       89
    x[11]     packing[0]  168
    x[11]     packing[3]  36
    x[11]     packing[5]  11
    x[11]     packing[6]  85
    x[11]     packing[7]  161
    x[11]     packing[8]  134
    x[11]     packing[9]  175
    x[11]     packing[10]  109
    x[11]     packing[13]  146
    x[11]     packing[14]  145
    x[11]     packing[15]  179
    x[11]     packing[16]  24
    x[11]     packing[17]  165
    x[11]     packing[18]  24
    x[11]     packing[20]  51
    x[11]     packing[21]  165
    x[11]     packing[22]  164
    x[11]     packing[23]  21
    x[11]     packing[24]  23
    x[11]     packing[25]  52
    x[11]     packing[27]  77
    x[11]     packing[28]  72
    x[11]     packing[31]  35
    x[11]     packing[32]  175
    x[11]     packing[33]  90
    x[11]     packing[34]  69
    x[11]     packing[35]  3
    x[11]     packing[36]  83
    x[11]     packing[38]  159
    x[11]     packing[39]  133
    x[11]     packing[40]  114
    x[11]     packing[41]  40
    x[11]     packing[42]  44
    x[11]     packing[43]  123
    x[11]     packing[45]  1
    x[11]     packing[47]  197
    x[11]     packing[49]  66
    x[12]     OBJ       117
    x[12]     packing[1]  130
    x[12]     packing[2]  181
    x[12]     packing[3]  77
    x[12]     packing[4]  15
    x[12]     packing[7]  111
    x[12]     packing[9]  91
    x[12]     packing[10]  16
    x[12]     packing[11]  139
    x[12]     packing[12]  111
    x[12]     packing[14]  43
    x[12]     packing[15]  96
    x[12]     packing[16]  125
    x[12]     packing[17]  59
    x[12]     packing[18]  82
    x[12]     packing[19]  41
    x[12]     packing[20]  63
    x[12]     packing[21]  39
    x[12]     packing[22]  158
    x[12]     packing[23]  1
    x[12]     packing[24]  111
    x[12]     packing[25]  75
    x[12]     packing[28]  73
    x[12]     packing[29]  108
    x[12]     packing[30]  148
    x[12]     packing[31]  170
    x[12]     packing[32]  168
    x[12]     packing[33]  85
    x[12]     packing[36]  181
    x[12]     packing[38]  160
    x[12]     packing[39]  126
    x[12]     packing[40]  93
    x[12]     packing[41]  175
    x[12]     packing[42]  109
    x[12]     packing[43]  56
    x[12]     packing[44]  6
    x[12]     packing[46]  162
    x[12]     packing[47]  129
    x[12]     R59       1
    x[13]     OBJ       113
    x[13]     packing[0]  71
    x[13]     packing[1]  76
    x[13]     packing[2]  60
    x[13]     packing[3]  14
    x[13]     packing[4]  64
    x[13]     packing[6]  99
    x[13]     packing[7]  22
    x[13]     packing[8]  67
    x[13]     packing[10]  199
    x[13]     packing[13]  131
    x[13]     packing[14]  192
    x[13]     packing[15]  137
    x[13]     packing[16]  199
    x[13]     packing[18]  129
    x[13]     packing[20]  20
    x[13]     packing[23]  56
    x[13]     packing[24]  171
    x[13]     packing[26]  100
    x[13]     packing[28]  162
    x[13]     packing[29]  21
    x[13]     packing[30]  173
    x[13]     packing[31]  122
    x[13]     packing[32]  173
    x[13]     packing[33]  190
    x[13]     packing[34]  120
    x[13]     packing[36]  111
    x[13]     packing[38]  57
    x[13]     packing[39]  171
    x[13]     packing[40]  163
    x[13]     packing[41]  95
    x[13]     packing[42]  23
    x[13]     packing[43]  92
    x[13]     packing[44]  38
    x[13]     packing[45]  100
    x[13]     packing[46]  3
    x[13]     packing[48]  86
    x[13]     packing[49]  122
    x[14]     OBJ       195
    x[14]     packing[2]  116
    x[14]     packing[3]  64
    x[14]     packing[4]  12
    x[14]     packing[5]  147
    x[14]     packing[6]  98
    x[14]     packing[7]  155
    x[14]     packing[8]  98
    x[14]     packing[9]  155
    x[14]     packing[10]  130
    x[14]     packing[12]  169
    x[14]     packing[13]  156
    x[14]     packing[15]  168
    x[14]     packing[16]  14
    x[14]     packing[17]  12
    x[14]     packing[20]  191
    x[14]     packing[21]  9
    x[14]     packing[22]  38
    x[14]     packing[24]  154
    x[14]     packing[26]  188
    x[14]     packing[28]  170
    x[14]     packing[29]  23
    x[14]     packing[31]  45
    x[14]     packing[32]  145
    x[14]     packing[33]  140
    x[14]     packing[35]  48
    x[14]     packing[36]  56
    x[14]     packing[37]  153
    x[14]     packing[39]  195
    x[14]     packing[40]  147
    x[14]     packing[41]  44
    x[14]     packing[43]  87
    x[14]     packing[44]  122
    x[14]     packing[46]  46
    x[14]     packing[47]  46
    x[14]     packing[48]  179
    x[14]     packing[49]  65
    x[14]     R59       1
    x[15]     OBJ       13
    x[15]     packing[0]  116
    x[15]     packing[1]  111
    x[15]     packing[2]  9
    x[15]     packing[3]  124
    x[15]     packing[4]  41
    x[15]     packing[5]  138
    x[15]     packing[6]  3
    x[15]     packing[7]  14
    x[15]     packing[9]  147
    x[15]     packing[10]  74
    x[15]     packing[11]  150
    x[15]     packing[12]  15
    x[15]     packing[13]  51
    x[15]     packing[14]  17
    x[15]     packing[15]  187
    x[15]     packing[16]  138
    x[15]     packing[17]  64
    x[15]     packing[18]  175
    x[15]     packing[19]  83
    x[15]     packing[20]  19
    x[15]     packing[21]  94
    x[15]     packing[22]  51
    x[15]     packing[23]  97
    x[15]     packing[25]  108
    x[15]     packing[26]  198
    x[15]     packing[27]  159
    x[15]     packing[28]  41
    x[15]     packing[29]  78
    x[15]     packing[30]  161
    x[15]     packing[32]  8
    x[15]     packing[33]  159
    x[15]     packing[34]  192
    x[15]     packing[35]  49
    x[15]     packing[36]  18
    x[15]     packing[37]  10
    x[15]     packing[38]  125
    x[15]     packing[39]  126
    x[15]     packing[41]  112
    x[15]     packing[42]  133
    x[15]     packing[44]  169
    x[15]     packing[46]  14
    x[15]     packing[47]  77
    x[15]     packing[48]  192
    x[16]     OBJ       113
    x[16]     packing[0]  192
    x[16]     packing[1]  154
    x[16]     packing[2]  44
    x[16]     packing[3]  10
    x[16]     packing[5]  119
    x[16]     packing[6]  110
    x[16]     packing[7]  96
    x[16]     packing[10]  88
    x[16]     packing[13]  61
    x[16]     packing[14]  186
    x[16]     packing[15]  191
    x[16]     packing[16]  73
    x[16]     packing[17]  32
    x[16]     packing[19]  37
    x[16]     packing[20]  15
    x[16]     packing[21]  72
    x[16]     packing[22]  166
    x[16]     packing[23]  199
    x[16]     packing[24]  33
    x[16]     packing[25]  30
    x[16]     packing[26]  175
    x[16]     packing[27]  124
    x[16]     packing[28]  42
    x[16]     packing[30]  31
    x[16]     packing[31]  41
    x[16]     packing[32]  147
    x[16]     packing[33]  193
    x[16]     packing[34]  117
    x[16]     packing[35]  16
    x[16]     packing[36]  13
    x[16]     packing[37]  15
    x[16]     packing[38]  43
    x[16]     packing[39]  72
    x[16]     packing[40]  20
    x[16]     packing[41]  185
    x[16]     packing[42]  165
    x[16]     packing[43]  189
    x[16]     packing[44]  110
    x[16]     packing[46]  197
    x[16]     packing[47]  96
    x[16]     packing[48]  32
    x[16]     packing[49]  15
    x[16]     R59       1
    x[17]     OBJ       137
    x[17]     packing[0]  114
    x[17]     packing[1]  64
    x[17]     packing[2]  176
    x[17]     packing[3]  93
    x[17]     packing[4]  38
    x[17]     packing[5]  161
    x[17]     packing[6]  37
    x[17]     packing[7]  140
    x[17]     packing[9]  8
    x[17]     packing[10]  58
    x[17]     packing[12]  43
    x[17]     packing[13]  23
    x[17]     packing[14]  124
    x[17]     packing[16]  158
    x[17]     packing[17]  62
    x[17]     packing[18]  138
    x[17]     packing[20]  95
    x[17]     packing[21]  18
    x[17]     packing[24]  163
    x[17]     packing[25]  193
    x[17]     packing[26]  146
    x[17]     packing[27]  97
    x[17]     packing[29]  109
    x[17]     packing[30]  130
    x[17]     packing[31]  192
    x[17]     packing[32]  172
    x[17]     packing[33]  140
    x[17]     packing[34]  136
    x[17]     packing[36]  178
    x[17]     packing[37]  48
    x[17]     packing[38]  69
    x[17]     packing[39]  138
    x[17]     packing[40]  35
    x[17]     packing[41]  52
    x[17]     packing[42]  183
    x[17]     packing[43]  195
    x[17]     packing[44]  32
    x[17]     packing[45]  172
    x[17]     packing[46]  70
    x[17]     packing[47]  155
    x[17]     packing[48]  176
    x[17]     packing[49]  166
    x[18]     OBJ       189
    x[18]     packing[0]  44
    x[18]     packing[1]  173
    x[18]     packing[3]  96
    x[18]     packing[4]  152
    x[18]     packing[5]  140
    x[18]     packing[6]  190
    x[18]     packing[7]  43
    x[18]     packing[8]  59
    x[18]     packing[9]  158
    x[18]     packing[10]  39
    x[18]     packing[12]  138
    x[18]     packing[13]  187
    x[18]     packing[14]  13
    x[18]     packing[16]  91
    x[18]     packing[18]  91
    x[18]     packing[21]  182
    x[18]     packing[22]  61
    x[18]     packing[23]  34
    x[18]     packing[24]  27
    x[18]     packing[25]  166
    x[18]     packing[29]  65
    x[18]     packing[30]  181
    x[18]     packing[31]  66
    x[18]     packing[32]  178
    x[18]     packing[36]  133
    x[18]     packing[37]  59
    x[18]     packing[38]  100
    x[18]     packing[39]  106
    x[18]     packing[40]  25
    x[18]     packing[41]  82
    x[18]     packing[42]  47
    x[18]     packing[43]  103
    x[18]     packing[44]  69
    x[18]     packing[45]  40
    x[18]     packing[46]  3
    x[18]     packing[47]  161
    x[18]     packing[48]  147
    x[18]     packing[49]  100
    x[18]     R59       1
    x[19]     OBJ       40
    x[19]     packing[0]  115
    x[19]     packing[1]  126
    x[19]     packing[2]  58
    x[19]     packing[4]  84
    x[19]     packing[5]  163
    x[19]     packing[7]  96
    x[19]     packing[8]  46
    x[19]     packing[9]  147
    x[19]     packing[11]  113
    x[19]     packing[12]  92
    x[19]     packing[13]  119
    x[19]     packing[14]  70
    x[19]     packing[15]  197
    x[19]     packing[16]  84
    x[19]     packing[17]  47
    x[19]     packing[20]  183
    x[19]     packing[21]  4
    x[19]     packing[22]  94
    x[19]     packing[23]  57
    x[19]     packing[24]  168
    x[19]     packing[26]  56
    x[19]     packing[27]  32
    x[19]     packing[29]  23
    x[19]     packing[31]  175
    x[19]     packing[33]  53
    x[19]     packing[34]  89
    x[19]     packing[35]  37
    x[19]     packing[36]  189
    x[19]     packing[37]  76
    x[19]     packing[38]  25
    x[19]     packing[39]  91
    x[19]     packing[40]  40
    x[19]     packing[42]  181
    x[19]     packing[43]  34
    x[19]     packing[44]  21
    x[19]     packing[46]  171
    x[19]     packing[48]  184
    x[19]     packing[49]  3
    x[20]     OBJ       97
    x[20]     packing[0]  97
    x[20]     packing[1]  52
    x[20]     packing[2]  6
    x[20]     packing[3]  99
    x[20]     packing[4]  86
    x[20]     packing[5]  25
    x[20]     packing[6]  161
    x[20]     packing[7]  198
    x[20]     packing[8]  82
    x[20]     packing[10]  112
    x[20]     packing[11]  96
    x[20]     packing[13]  78
    x[20]     packing[14]  19
    x[20]     packing[15]  66
    x[20]     packing[17]  156
    x[20]     packing[19]  12
    x[20]     packing[20]  74
    x[20]     packing[22]  109
    x[20]     packing[23]  135
    x[20]     packing[25]  68
    x[20]     packing[27]  146
    x[20]     packing[28]  64
    x[20]     packing[29]  6
    x[20]     packing[33]  146
    x[20]     packing[34]  80
    x[20]     packing[35]  135
    x[20]     packing[36]  120
    x[20]     packing[38]  162
    x[20]     packing[39]  184
    x[20]     packing[40]  173
    x[20]     packing[42]  108
    x[20]     packing[43]  181
    x[20]     packing[44]  163
    x[20]     packing[47]  84
    x[20]     packing[48]  155
    x[20]     packing[49]  20
    MARKER    'MARKER'                 'INTEND'
RHS
    RHS1      packing[0]  752
    RHS1      packing[1]  822
    RHS1      packing[2]  635
    RHS1      packing[3]  855
    RHS1      packing[4]  570
    RHS1      packing[5]  854
    RHS1      packing[6]  764
    RHS1      packing[7]  881
    RHS1      packing[8]  676
    RHS1      packing[9]  856
    RHS1      packing[10]  774
    RHS1      packing[11]  717
    RHS1      packing[12]  574
    RHS1      packing[13]  805
    RHS1      packing[14]  786
    RHS1      packing[15]  834
    RHS1      packing[16]  907
    RHS1      packing[17]  643
    RHS1      packing[18]  453
    RHS1      packing[19]  669
    RHS1      packing[20]  695
    RHS1      packing[21]  608
    RHS1      packing[22]  788
    RHS1      packing[23]  715
    RHS1      packing[24]  909
    RHS1      packing[25]  704
    RHS1      packing[26]  791
    RHS1      packing[27]  696
    RHS1      packing[28]  611
    RHS1      packing[29]  413
    RHS1      packing[30]  802
    RHS1      packing[31]  836
    RHS1      packing[32]  798
    RHS1      packing[33]  1057
    RHS1      packing[34]  836
    RHS1      packing[35]  483
    RHS1      packing[36]  865
    RHS1      packing[37]  662
    RHS1      packing[38]  782
    RHS1      packing[39]  1009
    RHS1      packing[40]  737
    RHS1      packing[41]  876
    RHS1      packing[42]  938
    RHS1      packing[43]  904
    RHS1      packing[44]  750
    RHS1      packing[45]  698
    RHS1      packing[46]  870
    RHS1      packing[47]  835
    RHS1      packing[48]  845
    RHS1      packing[49]  689
    RHS1      R59       6
BOUNDS
 BV BND1      x[1]    
 BV BND1      x[2]    
 BV BND1      x[3]    
 BV BND1      x[4]    
 BV BND1      x[5]    
 BV BND1      x[6]    
 BV BND1      x[7]    
 BV BND1      x[8]    
 BV BND1      x[9]    
 BV BND1      x[10]   
 BV BND1      x[11]   
 BV BND1      x[12]   
 BV BND1      x[13]   
 BV BND1      x[14]   
 BV BND1      x[15]   
 BV BND1      x[16]   
 BV BND1      x[17]   
 BV BND1      x[18]   
 BV BND1      x[19]   
 BV BND1      x[20]   
ENDATA
